(set-logic QF_S)
(declare-fun var0 () String)
(declare-fun var1 () Int)
(declare-fun var2 () Int)
(declare-fun var3 () String)
(declare-fun var4 () String)
(declare-fun var5 () String)
(declare-fun var6 () Int)
(declare-fun var7 () Int)
(assert (str.in.re (str.substr var0 var1 var2) (re.* re.allchar)))
(assert (str.suffixof (str.replace var3 "f?/" var4) (str.substr var5 var6 var7)))
(assert (str.contains (str.at (str.at var5 var7) (str.indexof var4 var0 var2)) (str.replace (str.substr var4 var7 91) (str.replace "Y{C{t""MYx" var0 "q5\\<\\;*Y2") (str.at var3 var6))))
(assert (> var1 180))
(check-sat)